DIMENSION: 12
EDGE_WEIGHT_TYPE: EXPLICIT
EDGE_WEIGHT_FORMAT: FULL_MATRIX
EDGE_WEIGHT_SECTION:
32767 4 12 32767 50 32767 87 79 32767 94 31 32767 
4 32767 64 41 96 29 57 32767 83 84 32767 8 
12 64 32767 32767 32767 32767 32767 32767 32767 32767 32767 75 
32767 41 32767 32767 32767 89 32767 77 85 32767 13 32767 
50 96 32767 32767 32767 32767 32767 94 32767 23 32767 62 
32767 29 32767 89 32767 32767 32767 32767 32767 99 32767 32767 
87 57 32767 32767 32767 32767 32767 32767 32767 24 68 38 
79 32767 32767 77 94 32767 32767 32767 24 32767 36 32767 
32767 83 32767 85 32767 32767 32767 24 32767 32767 51 32767 
94 84 32767 32767 23 99 24 32767 32767 32767 32767 32767 
31 32767 32767 13 32767 32767 68 36 51 32767 32767 32767 
32767 8 75 32767 62 32767 38 32767 32767 32767 32767 32767 
EOF